48
7
0 8 9 10 11 13 14 15 20 21 22 24 26 28 32 33 34 35 36 37 39 40 43 45 47
1 8 9 11 16 20 21 22 24 28 32 33 34 35 39 42 43 44 45 46 47
2 9 12 13 15 17 18 21 22 26 27 28 29 31 33 35 38 39 40 42 45 47
3 8 9 11 13 15 17 19 21 22 23 25 30 31 32 33 34 35 36 37 39 43
4 8 12 13 16 17 20 21 23 24 26 27 28 30 31 34 42 43
5 7 16 22 26 33 39 40 41 43
6 18 19 28 29 30 35 37 38 45
